x low 4.00
p edge 96 272
n 0 1.00
n 7 1.00
n 6 1.00
n 4 1.00
n 3 1.00
n 1 1.00
n 9 1.00
n 18 1.00
n 2 1.00
n 10 1.00
n 11 1.00
n 13 1.00
n 5 1.00
n 14 1.00
n 15 1.00
n 16 1.00
n 17 1.00
n 19 1.00
n 12 1.00
n 22 1.00
n 21 1.00
n 20 1.00
n 24 1.00
n 23 1.00
n 26 1.00
n 25 1.00
n 53 1.00
n 29 1.00
n 27 1.00
n 54 1.00
n 30 1.00
n 32 1.00
n 34 1.00
n 33 1.00
n 35 1.00
n 28 1.00
n 36 1.00
n 45 1.00
n 37 1.00
n 39 1.00
n 38 1.00
n 31 1.00
n 40 1.00
n 42 1.00
n 41 1.00
n 43 1.00
n 44 1.00
n 47 1.00
n 46 1.00
n 49 1.00
n 48 1.00
n 51 1.00
n 50 1.00
n 52 1.00
n 56 1.00
n 59 1.00
n 57 1.00
n 60 1.00
n 62 1.00
n 61 1.00
n 80 1.00
n 98 1.00
n 55 1.00
n 63 1.00
n 64 1.00
n 65 1.00
n 58 1.00
n 68 1.00
n 66 1.00
n 67 1.00
n 69 1.00
n 71 1.00
n 70 1.00
n 73 1.00
n 72 1.00
n 81 1.00
n 74 1.00
n 77 1.00
n 76 1.00
n 75 1.00
n 79 1.00
n 83 1.00
n 82 1.00
n 84 1.00
n 78 1.00
n 87 1.00
n 86 1.00
n 85 1.00
n 88 1.00
n 90 1.00
n 92 1.00
n 94 1.00
n 96 1.00
n 95 1.00
n 97 1.00
n 93 1.00
e 0 7
e 0 6
e 0 4
e 0 3
e 0 1
e 0 9
e 0 18
e 1 3
e 1 2
e 1 9
e 1 10
e 2 3
e 2 10
e 2 11
e 2 13
e 3 4
e 3 13
e 4 6
e 4 5
e 4 13
e 5 6
e 5 13
e 5 14
e 5 15
e 6 7
e 6 15
e 7 15
e 7 16
e 9 10
e 9 19
e 9 18
e 10 11
e 10 19
e 10 12
e 11 13
e 11 12
e 12 13
e 12 14
e 12 22
e 12 19
e 12 21
e 12 20
e 13 14
e 14 15
e 14 22
e 14 24
e 14 23
e 15 16
e 15 24
e 16 17
e 16 24
e 16 26
e 16 25
e 17 26
e 17 53
e 18 19
e 18 20
e 18 29
e 18 27
e 18 54
e 19 20
e 20 21
e 20 30
e 20 29
e 21 22
e 21 30
e 22 23
e 22 30
e 23 24
e 23 25
e 23 30
e 23 32
e 24 25
e 25 26
e 25 34
e 25 32
e 25 33
e 26 34
e 26 35
e 26 53
e 27 29
e 27 28
e 27 36
e 27 45
e 27 54
e 28 29
e 28 36
e 28 30
e 28 37
e 28 39
e 28 38
e 29 30
e 30 32
e 30 31
e 30 39
e 31 32
e 31 40
e 31 39
e 32 33
e 32 42
e 32 41
e 32 40
e 33 34
e 33 43
e 33 42
e 34 35
e 34 43
e 35 43
e 35 44
e 35 53
e 36 37
e 36 45
e 37 38
e 37 47
e 37 45
e 37 46
e 38 39
e 38 47
e 39 40
e 39 47
e 39 49
e 39 48
e 40 41
e 40 49
e 41 42
e 41 49
e 41 51
e 41 50
e 42 43
e 42 44
e 42 51
e 43 44
e 44 51
e 44 52
e 44 53
e 45 46
e 45 54
e 46 47
e 46 54
e 46 48
e 46 56
e 47 48
e 48 49
e 48 59
e 48 56
e 48 57
e 49 50
e 49 59
e 50 51
e 50 59
e 51 52
e 51 59
e 51 60
e 52 53
e 52 62
e 52 61
e 52 60
e 53 62
e 53 80
e 53 98
e 54 56
e 54 55
e 54 63
e 55 56
e 55 63
e 55 64
e 55 65
e 56 57
e 56 65
e 57 59
e 57 58
e 57 65
e 58 59
e 58 60
e 58 65
e 58 68
e 58 66
e 58 67
e 59 60
e 60 61
e 60 69
e 60 68
e 61 62
e 61 71
e 61 69
e 61 70
e 62 71
e 62 80
e 63 64
e 63 73
e 63 72
e 63 81
e 64 65
e 64 73
e 65 66
e 65 73
e 65 74
e 66 67
e 66 74
e 67 68
e 67 77
e 67 76
e 67 74
e 67 75
e 68 69
e 68 77
e 68 79
e 69 70
e 69 79
e 70 71
e 70 79
e 70 80
e 71 80
e 72 73
e 72 74
e 72 83
e 72 82
e 72 81
e 73 74
e 74 75
e 74 83
e 75 76
e 75 84
e 75 83
e 76 77
e 76 78
e 76 84
e 76 87
e 76 86
e 76 85
e 77 79
e 77 78
e 78 79
e 78 80
e 78 87
e 78 88
e 79 80
e 80 88
e 80 98
e 81 82
e 81 90
e 82 83
e 82 92
e 82 90
e 83 84
e 83 85
e 83 92
e 83 94
e 84 85
e 85 86
e 85 94
e 86 87
e 86 94
e 86 96
e 86 95
e 87 88
e 87 96
e 88 98
e 88 96
e 88 97
e 90 92
e 92 94
e 92 93
e 93 94
e 93 95
e 94 95
e 95 96
e 95 97
e 96 97
e 97 98
e 7 17
e 90 93
